(declare-fun var0 () String)
(assert (RegexIn var0 (RegexConcat (RegexStar (RegexUnion (Str2Reg "BBB") (Str2Reg "CCC"))) (RegexConcat (RegexUnion (RegexPlus (Str2Reg "z")) (RegexStar (Str2Reg "AA"))) (RegexConcat (RegexPlus (RegexUnion (Str2Reg "x") (Str2Reg "y"))) (RegexConcat (RegexUnion (RegexUnion (Str2Reg "uuu") (Str2Reg "vvv")) (RegexPlus (Str2Reg "www"))) (RegexConcat (RegexStar (RegexUnion (Str2Reg "ss") (Str2Reg "ttt"))) (RegexConcat (RegexUnion (RegexPlus (Str2Reg "p")) (RegexUnion (Str2Reg "qqq") (Str2Reg "rr"))) (RegexConcat (RegexPlus (RegexUnion (Str2Reg "nnn") (Str2Reg "o"))) (RegexConcat (RegexStar (RegexPlus (Str2Reg "mm"))) (RegexConcat (RegexPlus (RegexPlus (Str2Reg "lll"))) (RegexConcat (RegexPlus (RegexPlus (Str2Reg "kk"))) (RegexConcat (RegexStar (RegexStar (Str2Reg "jj"))) (RegexConcat (RegexPlus (RegexPlus (Str2Reg "ii"))) (RegexConcat (RegexUnion (RegexUnion (Str2Reg "eee") (Str2Reg "ff")) (RegexUnion (Str2Reg "ggg") (Str2Reg "hh"))) (RegexConcat (RegexStar (RegexPlus (Str2Reg "ddd"))) (RegexConcat (RegexStar (RegexUnion (Str2Reg "b") (Str2Reg "cc"))) (RegexConcat (RegexUnion (RegexPlus (Str2Reg "888")) (RegexUnion (Str2Reg "999") (Str2Reg "aaa"))) (RegexConcat (RegexUnion (RegexUnion (Str2Reg "444") (Str2Reg "555")) (RegexUnion (Str2Reg "6") (Str2Reg "7"))) (RegexConcat (RegexStar (RegexPlus (Str2Reg "3"))) (RegexConcat (RegexUnion (RegexUnion (Str2Reg "0") (Str2Reg "11")) (RegexPlus (Str2Reg "22"))) (RegexConcat (RegexStar (RegexPlus (Str2Reg "~"))) (RegexConcat (RegexPlus (RegexUnion (Str2Reg "|") (Str2Reg "}"))) (RegexConcat (RegexPlus (RegexPlus (Str2Reg "{"))) (RegexConcat (RegexUnion (RegexPlus (Str2Reg "^^")) (RegexUnion (Str2Reg "__") (Str2Reg "`"))) (RegexConcat (RegexStar (RegexUnion (Str2Reg "\\") (Str2Reg "]"))) (RegexConcat (RegexStar (RegexStar (Str2Reg "[["))) (RegexConcat (RegexStar (RegexPlus (Str2Reg "@"))) (RegexConcat (RegexPlus (RegexPlus (Str2Reg "?"))) (RegexConcat (RegexStar (RegexUnion (Str2Reg "==") (Str2Reg ">>"))) (RegexConcat (RegexPlus (RegexUnion (Str2Reg ";;;") (Str2Reg "<"))) (RegexConcat (RegexPlus (RegexPlus (Str2Reg "::"))) (RegexConcat (RegexPlus (RegexUnion (Str2Reg ".") (Str2Reg "//"))) (RegexConcat (RegexUnion (RegexPlus (Str2Reg ",")) (RegexStar (Str2Reg "--"))) (RegexConcat (RegexUnion (RegexUnion (Str2Reg "))") (Str2Reg "***")) (RegexPlus (Str2Reg "+"))) (RegexConcat (RegexPlus (RegexStar (Str2Reg "(("))) (RegexConcat (RegexStar (RegexPlus (Str2Reg "'"))) (RegexConcat (RegexUnion (RegexPlus (Str2Reg "%%")) (RegexStar (Str2Reg "&&"))) (RegexConcat (RegexStar (RegexPlus (Str2Reg "$"))) (RegexConcat (RegexUnion (RegexPlus (Str2Reg "!!")) (RegexUnion (Str2Reg "\"\"") (Str2Reg "###"))) (RegexConcat (RegexStar (RegexStar (Str2Reg "Z"))) (RegexConcat (RegexPlus (RegexUnion (Str2Reg "XX") (Str2Reg "Y"))) (RegexConcat (RegexPlus (RegexStar (Str2Reg "W"))) (RegexConcat (RegexPlus (RegexUnion (Str2Reg "U") (Str2Reg "V"))) (RegexConcat (RegexUnion (RegexStar (Str2Reg "RR")) (RegexUnion (Str2Reg "S") (Str2Reg "TT"))) (RegexConcat (RegexUnion (RegexPlus (Str2Reg "PP")) (RegexStar (Str2Reg "Q"))) (RegexConcat (RegexStar (RegexStar (Str2Reg "OOO"))) (RegexConcat (RegexStar (RegexUnion (Str2Reg "M") (Str2Reg "NN"))) (RegexConcat (RegexPlus (RegexPlus (Str2Reg "LL"))) (RegexConcat (RegexPlus (RegexUnion (Str2Reg "JJJ") (Str2Reg "K"))) (RegexConcat (RegexPlus (RegexStar (Str2Reg "II"))) (RegexConcat (RegexPlus (RegexUnion (Str2Reg "GGG") (Str2Reg "HHH"))) (RegexConcat (RegexPlus (RegexStar (Str2Reg "FFF"))) (RegexConcat (RegexStar (RegexPlus (Str2Reg "EE"))) (RegexConcat (RegexStar (RegexPlus (Str2Reg "D"))) (RegexConcat (RegexStar (RegexStar (Str2Reg "CCC"))) (RegexConcat (RegexPlus (RegexStar (Str2Reg "BB"))) (RegexConcat (RegexPlus (RegexPlus (Str2Reg "AAA"))) (RegexConcat (RegexStar (RegexStar (Str2Reg "zzz"))) (RegexConcat (RegexStar (RegexPlus (Str2Reg "y"))) (RegexConcat (RegexUnion (RegexPlus (Str2Reg "w")) (RegexPlus (Str2Reg "xx"))) (RegexConcat (RegexUnion (RegexPlus (Str2Reg "uu")) (RegexPlus (Str2Reg "vv"))) (RegexConcat (RegexUnion (RegexStar (Str2Reg "rr")) (RegexUnion (Str2Reg "s") (Str2Reg "t"))) (RegexConcat (RegexStar (RegexStar (Str2Reg "q"))) (RegexConcat (RegexPlus (RegexPlus (Str2Reg "ppp"))) (RegexConcat (RegexStar (RegexUnion (Str2Reg "n") (Str2Reg "oo"))) (RegexConcat (RegexStar (RegexStar (Str2Reg "mmm"))) (RegexConcat (RegexUnion (RegexPlus (Str2Reg "k")) (RegexPlus (Str2Reg "ll"))) (RegexConcat (RegexStar (RegexStar (Str2Reg "j"))) (RegexConcat (RegexUnion (RegexPlus (Str2Reg "h")) (RegexPlus (Str2Reg "i"))) (RegexConcat (RegexPlus (RegexUnion (Str2Reg "f") (Str2Reg "gg"))) (RegexConcat (RegexUnion (RegexUnion (Str2Reg "c") (Str2Reg "d")) (RegexStar (Str2Reg "ee"))) (RegexConcat (RegexStar (RegexPlus (Str2Reg "b"))) (RegexConcat (RegexPlus (RegexUnion (Str2Reg "999") (Str2Reg "aa"))) (RegexConcat (RegexStar (RegexUnion (Str2Reg "77") (Str2Reg "8"))) (RegexConcat (RegexStar (RegexPlus (Str2Reg "66"))) (RegexConcat (RegexUnion (RegexUnion (Str2Reg "2") (Str2Reg "3")) (RegexUnion (Str2Reg "4") (Str2Reg "5"))) (RegexConcat (RegexStar (RegexPlus (Str2Reg "111"))) (RegexConcat (RegexStar (RegexPlus (Str2Reg "0"))) (RegexConcat (RegexPlus (RegexPlus (Str2Reg "~"))) (RegexConcat (RegexStar (RegexPlus (Str2Reg "}}}"))) (RegexConcat (RegexStar (RegexUnion (Str2Reg "{{{") (Str2Reg "|||"))) (RegexConcat (RegexStar (RegexUnion (Str2Reg "__") (Str2Reg "`"))) (RegexConcat (RegexPlus (RegexPlus (Str2Reg "^^"))) (RegexConcat (RegexStar (RegexStar (Str2Reg "]]"))) (RegexConcat (RegexUnion (RegexPlus (Str2Reg "[")) (RegexPlus (Str2Reg "\\"))) (RegexConcat (RegexPlus (RegexUnion (Str2Reg "??") (Str2Reg "@@"))) (RegexConcat (RegexPlus (RegexUnion (Str2Reg "===") (Str2Reg ">>"))) (RegexConcat (RegexPlus (RegexUnion (Str2Reg ";;;") (Str2Reg "<<<"))) (RegexConcat (RegexStar (RegexUnion (Str2Reg "//") (Str2Reg ":"))) (RegexConcat (RegexStar (RegexStar (Str2Reg ".."))) (RegexConcat (RegexUnion (RegexUnion (Str2Reg "++") (Str2Reg ",,")) (RegexStar (Str2Reg "--"))) (RegexConcat (RegexStar (RegexPlus (Str2Reg "*"))) (RegexConcat (RegexUnion (RegexStar (Str2Reg "'''")) (RegexUnion (Str2Reg "(") (Str2Reg ")"))) (RegexConcat (RegexPlus (RegexStar (Str2Reg "&"))) (RegexConcat (RegexUnion (RegexStar (Str2Reg "#")) (RegexUnion (Str2Reg "$$$") (Str2Reg "%%"))) (RegexConcat (RegexStar (RegexStar (Str2Reg "\"\"\""))) (RegexConcat (RegexStar (RegexStar (Str2Reg "!"))) (RegexConcat (RegexPlus (RegexPlus (Str2Reg "Z"))) (RegexConcat (RegexUnion (RegexUnion (Str2Reg "VVV") (Str2Reg "W")) (RegexUnion (Str2Reg "XX") (Str2Reg "YY"))) (RegexConcat (RegexUnion (RegexPlus (Str2Reg "SS")) (RegexUnion (Str2Reg "TT") (Str2Reg "UU"))) (RegexConcat (RegexUnion (RegexPlus (Str2Reg "Q")) (RegexPlus (Str2Reg "RR"))) (RegexConcat (RegexPlus (RegexStar (Str2Reg "PP"))) (RegexConcat (RegexStar (RegexPlus (Str2Reg "OOO"))) (RegexConcat (RegexPlus (RegexUnion (Str2Reg "MMM") (Str2Reg "NN"))) (RegexConcat (RegexStar (RegexUnion (Str2Reg "KKK") (Str2Reg "LL"))) (RegexConcat (RegexPlus (RegexStar (Str2Reg "J"))) (RegexConcat (RegexStar (RegexPlus (Str2Reg "III"))) (RegexConcat (RegexPlus (RegexPlus (Str2Reg "H"))) (RegexConcat (RegexStar (RegexUnion (Str2Reg "FFF") (Str2Reg "GG"))) (RegexConcat (RegexPlus (RegexStar (Str2Reg "EEE"))) (RegexConcat (RegexStar (RegexPlus (Str2Reg "D"))) (RegexConcat (RegexUnion (RegexPlus (Str2Reg "BBB")) (RegexStar (Str2Reg "CCC"))) (RegexConcat (RegexUnion (RegexPlus (Str2Reg "zzz")) (RegexStar (Str2Reg "AAA"))) (RegexConcat (RegexUnion (RegexStar (Str2Reg "x")) (RegexPlus (Str2Reg "yy"))) (RegexConcat (RegexStar (RegexStar (Str2Reg "ww"))) (RegexConcat (RegexPlus (RegexPlus (Str2Reg "v"))) (RegexConcat (RegexUnion (RegexStar (Str2Reg "tt")) (RegexPlus (Str2Reg "uuu"))) (RegexConcat (RegexPlus (RegexStar (Str2Reg "sss"))) (RegexConcat (RegexUnion (RegexPlus (Str2Reg "qq")) (RegexPlus (Str2Reg "r"))) (RegexConcat (RegexStar (RegexUnion (Str2Reg "oo") (Str2Reg "p"))) (RegexConcat (RegexStar (RegexUnion (Str2Reg "mm") (Str2Reg "nnn"))) (RegexConcat (RegexPlus (RegexStar (Str2Reg "l"))) (RegexConcat (RegexUnion (RegexStar (Str2Reg "j")) (RegexStar (Str2Reg "k"))) (RegexConcat (RegexStar (RegexUnion (Str2Reg "hh") (Str2Reg "ii"))) (RegexConcat (RegexPlus (RegexStar (Str2Reg "ggg"))) (RegexConcat (RegexUnion (RegexUnion (Str2Reg "d") (Str2Reg "e")) (RegexPlus (Str2Reg "fff"))) (RegexConcat (RegexPlus (RegexUnion (Str2Reg "bbb") (Str2Reg "c"))) (RegexConcat (RegexPlus (RegexUnion (Str2Reg "99") (Str2Reg "a"))) (RegexConcat (RegexStar (RegexStar (Str2Reg "8"))) (RegexConcat (RegexUnion (RegexStar (Str2Reg "6")) (RegexPlus (Str2Reg "7"))) (RegexConcat (RegexStar (RegexStar (Str2Reg "55"))) (RegexConcat (RegexStar (RegexStar (Str2Reg "444"))) (RegexConcat (RegexStar (RegexPlus (Str2Reg "3"))) (RegexConcat (RegexPlus (RegexPlus (Str2Reg "22"))) (RegexStar (RegexUnion (Str2Reg "000") (Str2Reg "111"))))))))))))))))))))))))))))))))))))))))))))))))))))))))))))))))))))))))))))))))))))))))))))))))))))))))))))))))))))))))))))))))))))))))))
(check-sat)